20	5
0	8	7	5	2	4	3	8	6	1
1	3	17	11	20
2	1	10
3	1	14
4	2	9	18
5	1	15
6	1	16
7	2	15	16
8	2	19	21
9	1	13
10	0
11	1	13
12	1	14
13	1	19
14	3	11	17	20
15	1	20
16	1	12
17	2	18	9
18	1	21
19	1	21
20	1	21
21	0
0	0	0	0	0	0	0
1	4	1	5	2	2	1
2	9	0	4	2	0	0
3	7	5	2	3	5	4
4	10	4	5	0	0	0
5	9	1	1	4	0	0
6	6	1	2	3	5	1
7	1	2	0	5	4	4
8	8	0	0	0	5	5
9	3	1	1	5	5	0
10	8	1	4	2	4	4
11	1	1	1	5	4	4
12	8	3	5	1	3	3
13	2	1	4	1	0	1
14	2	4	0	5	3	4
15	6	3	3	2	2	5
16	3	0	0	0	4	0
17	6	4	2	0	4	0
18	7	2	1	0	0	3
19	4	0	2	0	4	2
20	7	1	1	1	4	4
21	0	0	0	0	0	0
8	12	13	15	12
